33
524
442 252 252 252 252 252 252 252 127 127 127 127 127 106 106 106 106 85 84 46 37 37 12 12 12 10 10 10 10 10 10 9 9 
20 20 20 25 25 30 30 22 21 20 20 10 10 19 18 10 5 5 5 5 5 8 8 8 2 2 10 20 20 10 2 3 7 
